4 5
47 82 76 94 
0 61 39 46 57 22 76 99 94 49 39 30 77 64 36 24 64 22 61 41 91 2
1 74 47 90 82 99 24 15 59 95 71 32 35 92 4 53 58 44 48 76 82 1
2 79 5 80 76 88 46 89 25 76 89 100 20 39 62 37 33 32 3 95 73 4
3 35 14 20 61 96 15 73 62 61 93 34 34 81 59 88 45 77 17 28 53 3
4 73 23 41 74 18 24 86 75 68 99 89 2 64 84 73 13 75 75 82 17 2
